NAME: tsp1
DIMENSION: 15
DISPLAY_DATA_SECTION
   0   41800.00   82650.00
   1   41966.67   82533.33
   2   41983.33   82933.33
   3   42033.33   82750.00
   4   42033.33   82916.67
   5   42050.00   82583.33
   6   42100.00   82450.00
   7   42100.00   83100.00
   8   42133.33   82750.00
   9   42150.00   82966.67
  10   42166.67   82816.67
  11   42233.33   82550.00
  12   42250.00   81916.67
  13   42250.00   82433.33
  14   42283.33   83066.67
EOF
